50
25093

493 944
900 719
723 790
397 974
383 332
759 14
266 912
839 305
991 872
884 363
64 906
374 799
829 106
17 329
777 414
747 433
440 417
290 60
375 98
677 399
752 973
802 859
552 892
528 232
113 37
765 762
522 529
320 721
759 864
172 485
597 912
674 105
992 163
464 402
723 215
341 962
418 829
279 865
439 731
749 338
760 335
647 684
151 521
797 709
127 574
418 496
684 526
430 555
476 580
927 565
